TYPE : Vertex Cover
DIMENSION: 27
EDGE_DATA_SECTION:
0 1
0 20
1 5
1 6
1 7
1 25
2 4
2 8
2 10
2 12
2 16
2 18
2 23
2 26
3 8
3 12
3 17
3 19
3 21
4 9
4 10
4 26
5 7
5 10
5 18
6 12
6 13
6 14
6 21
7 9
7 10
7 15
7 18
7 22
8 9
8 19
8 20
9 12
9 15
9 23
9 24
10 19
10 20
11 12
11 15
11 16
11 17
11 18
11 25
12 13
12 16
12 17
12 19
12 25
13 23
14 21
14 23
14 26
15 16
17 23
18 19
18 22
19 21
20 21
21 23
-1
VERTEX_DEGREE:
2.0 5.0 8.0 5.0 4.0 4.0 5.0 7.0 5.0 7.0 6.0 6.0 10.0 3.0 4.0 4.0 4.0 4.0 6.0 6.0 4.0 6.0 2.0 6.0 1.0 3.0 3.0
VERTEX_COVER:
1 2 3 4 5 6 7 9 11 12 14 16 18 19 20 23
EOF
